521
7 28
14 49
13 34
18 50
35 39
32 2
42 42
27 32
6 35
24 47
37 38
38 3
33 13
27 9
26 7
12 33
33 13
12 37
28 32
36 8
37 25
29 29
29 44
17 15
49 42
4 45
13 41
45 4
4 7
17 24
5 5
25 18
13 25
44 15
20 28
47 43
8 13
13 47
12 14
33 13
43 4
22 3
35 23
21 27
1 8
41 21
19 33
42 17
24 34
18 48
11 19
8 20
7 24
7 1
7 12
16 33
26 1
6 1
14 49
24 25
41 40
44 32
4 15
49 38
27 48
15 26
47 15
34 24
10 20
37 27
48 49
14 24
36 31
24 40
7 18
40 43
26 32
50 30
45 4
37 42
1 14
46 15
22 22
38 14
24 8
30 39
4 33
14 25
28 49
24 24
16 4
15 26
15 42
19 31
41 21
24 5
48 23
45 39
29 30
15 4
